nN = 6;
nR = 15;
nH = 1;

a = [[23, 12, 20, 17, 21, 21, 25, 11, 17, 12, 21, 18, 5, 6, 24], [15, 13, 9, 24, 9, 16, 23, 13, 9, 13, 20, 18, 20, 25, 13], [15, 20, 17, 15, 18, 20, 24, 8, 19, 10, 20, 19, 16, 6, 7], [15, 15, 25, 25, 10, 12, 18, 14, 24, 15, 21, 21, 7, 25, 20], [11, 20, 14, 7, 25, 12, 16, 19, 15, 8, 21, 15, 7, 9, 15], [12, 11, 22, 6, 7, 19, 6, 24, 20, 14, 23, 13, 16, 10, 11]];
c = [[[0, 0, 0, 0, 0, 0, 0, 0, 0, 0, 0, 0, 0, 0, 0], [39, 30, 34, 37, 46, 46, 35, 44, 32, 43, 32, 41, 48, 47, 39], [48, 34, 50, 37, 47, 33, 40, 50, 30, 48, 33, 38, 36, 32, 42], [47, 34, 43, 33, 31, 50, 48, 44, 34, 42, 32, 30, 34, 35, 40], [47, 38, 47, 48, 44, 44, 41, 31, 37, 39, 46, 37, 31, 45, 45], [31, 34, 31, 40, 34, 35, 41, 35, 45, 33, 30, 43, 49, 50, 34]], [[0, 0, 0, 0, 0, 0, 0, 0, 0, 0, 0, 0, 0, 0, 0], [0, 0, 0, 0, 0, 0, 0, 0, 0, 0, 0, 0, 0, 0, 0], [44, 50, 31, 34, 44, 48, 38, 42, 33, 34, 46, 38, 35, 47, 50], [31, 33, 43, 31, 39, 32, 32, 43, 47, 31, 48, 39, 44, 34, 37], [32, 39, 30, 47, 34, 48, 50, 44, 41, 36, 31, 48, 38, 39, 34], [43, 43, 46, 49, 33, 33, 32, 37, 36, 35, 47, 31, 31, 35, 45]], [[0, 0, 0, 0, 0, 0, 0, 0, 0, 0, 0, 0, 0, 0, 0], [0, 0, 0, 0, 0, 0, 0, 0, 0, 0, 0, 0, 0, 0, 0], [0, 0, 0, 0, 0, 0, 0, 0, 0, 0, 0, 0, 0, 0, 0], [45, 48, 50, 34, 31, 41, 45, 36, 32, 32, 47, 45, 31, 46, 42], [48, 34, 47, 43, 43, 49, 30, 36, 46, 49, 47, 35, 31, 32, 36], [37, 40, 40, 33, 50, 45, 33, 50, 48, 31, 45, 32, 50, 50, 30]], [[0, 0, 0, 0, 0, 0, 0, 0, 0, 0, 0, 0, 0, 0, 0], [0, 0, 0, 0, 0, 0, 0, 0, 0, 0, 0, 0, 0, 0, 0], [0, 0, 0, 0, 0, 0, 0, 0, 0, 0, 0, 0, 0, 0, 0], [0, 0, 0, 0, 0, 0, 0, 0, 0, 0, 0, 0, 0, 0, 0], [45, 31, 34, 40, 38, 41, 35, 47, 31, 30, 38, 35, 49, 46, 48], [42, 46, 32, 38, 45, 35, 35, 46, 39, 42, 46, 49, 50, 42, 41]], [[0, 0, 0, 0, 0, 0, 0, 0, 0, 0, 0, 0, 0, 0, 0], [0, 0, 0, 0, 0, 0, 0, 0, 0, 0, 0, 0, 0, 0, 0], [0, 0, 0, 0, 0, 0, 0, 0, 0, 0, 0, 0, 0, 0, 0], [0, 0, 0, 0, 0, 0, 0, 0, 0, 0, 0, 0, 0, 0, 0], [0, 0, 0, 0, 0, 0, 0, 0, 0, 0, 0, 0, 0, 0, 0], [34, 38, 48, 35, 46, 50, 35, 50, 35, 50, 36, 42, 33, 43, 41]], [[0, 0, 0, 0, 0, 0, 0, 0, 0, 0, 0, 0, 0, 0, 0], [0, 0, 0, 0, 0, 0, 0, 0, 0, 0, 0, 0, 0, 0, 0], [0, 0, 0, 0, 0, 0, 0, 0, 0, 0, 0, 0, 0, 0, 0], [0, 0, 0, 0, 0, 0, 0, 0, 0, 0, 0, 0, 0, 0, 0], [0, 0, 0, 0, 0, 0, 0, 0, 0, 0, 0, 0, 0, 0, 0], [0, 0, 0, 0, 0, 0, 0, 0, 0, 0, 0, 0, 0, 0, 0]]];
Q = [[29], [32], [26], [33], [34], [27]];

q = [[[18], [8], [11], [19], [24], [14], [9], [20], [10], [10], [9], [9], [6], [24], [21]], [[14], [18], [22], [5], [14], [18], [21], [12], [15], [22], [14], [21], [10], [11], [18]], [[6], [5], [11], [12], [23], [16], [7], [11], [12], [16], [10], [18], [10], [15], [19]], [[22], [14], [18], [14], [22], [18], [21], [9], [16], [19], [7], [25], [22], [13], [7]], [[25], [5], [24], [8], [22], [24], [12], [11], [20], [24], [11], [24], [25], [6], [12]], [[12], [11], [17], [10], [19], [14], [6], [13], [5], [15], [7], [24], [12], [16], [18]]];
p = [0.42, 0.18, 0.36, 0.32, 0.41, 0.84, 0.85, 0.12, 0.72, 0.52, 0.92, 0.57, 0.75, 0.02, 0.21];
